DATASET = "thpack1";
INSTANCE = "085";

WIDTH = 233;
HEIGHT = 220;
LENGTH = 587;

NO_OF_SHAPES = 3;
size = [|
  55,37,22 |
  72,55,31 |
  61,56,36 |
|];

verticality = [|
  0,1,1 |
  0,1,1 |
  1,1,1 |
|];

box_count = [
  117,
  103,
  99,
];
